c *********************************
c * Circuit generated by BenCGen
c *
c * RippleCarryAdderSubtractor_118_118_118_OutSunT
c *
c * Ports with 1 gate(s): 2
c * Ports with 2 gate(s): 710
c * Total gates: 712
c *********************************
p cnf 948 2489
1 357 0
-1 -357 0
1 -356 0
357 -356 0
-1 -357 356 0
356 358 0
-356 -358 0
119 356 -359 0
-119 356 359 0
119 -356 359 0
-119 -356 -359 0
120 356 -360 0
-120 356 360 0
120 -356 360 0
-120 -356 -360 0
121 356 -361 0
-121 356 361 0
121 -356 361 0
-121 -356 -361 0
122 356 -362 0
-122 356 362 0
122 -356 362 0
-122 -356 -362 0
123 356 -363 0
-123 356 363 0
123 -356 363 0
-123 -356 -363 0
124 356 -364 0
-124 356 364 0
124 -356 364 0
-124 -356 -364 0
125 356 -365 0
-125 356 365 0
125 -356 365 0
-125 -356 -365 0
126 356 -366 0
-126 356 366 0
126 -356 366 0
-126 -356 -366 0
127 356 -367 0
-127 356 367 0
127 -356 367 0
-127 -356 -367 0
128 356 -368 0
-128 356 368 0
128 -356 368 0
-128 -356 -368 0
129 356 -369 0
-129 356 369 0
129 -356 369 0
-129 -356 -369 0
130 356 -370 0
-130 356 370 0
130 -356 370 0
-130 -356 -370 0
131 356 -371 0
-131 356 371 0
131 -356 371 0
-131 -356 -371 0
132 356 -372 0
-132 356 372 0
132 -356 372 0
-132 -356 -372 0
133 356 -373 0
-133 356 373 0
133 -356 373 0
-133 -356 -373 0
134 356 -374 0
-134 356 374 0
134 -356 374 0
-134 -356 -374 0
135 356 -375 0
-135 356 375 0
135 -356 375 0
-135 -356 -375 0
136 356 -376 0
-136 356 376 0
136 -356 376 0
-136 -356 -376 0
137 356 -377 0
-137 356 377 0
137 -356 377 0
-137 -356 -377 0
138 356 -378 0
-138 356 378 0
138 -356 378 0
-138 -356 -378 0
139 356 -379 0
-139 356 379 0
139 -356 379 0
-139 -356 -379 0
140 356 -380 0
-140 356 380 0
140 -356 380 0
-140 -356 -380 0
141 356 -381 0
-141 356 381 0
141 -356 381 0
-141 -356 -381 0
142 356 -382 0
-142 356 382 0
142 -356 382 0
-142 -356 -382 0
143 356 -383 0
-143 356 383 0
143 -356 383 0
-143 -356 -383 0
144 356 -384 0
-144 356 384 0
144 -356 384 0
-144 -356 -384 0
145 356 -385 0
-145 356 385 0
145 -356 385 0
-145 -356 -385 0
146 356 -386 0
-146 356 386 0
146 -356 386 0
-146 -356 -386 0
147 356 -387 0
-147 356 387 0
147 -356 387 0
-147 -356 -387 0
148 356 -388 0
-148 356 388 0
148 -356 388 0
-148 -356 -388 0
149 356 -389 0
-149 356 389 0
149 -356 389 0
-149 -356 -389 0
150 356 -390 0
-150 356 390 0
150 -356 390 0
-150 -356 -390 0
151 356 -391 0
-151 356 391 0
151 -356 391 0
-151 -356 -391 0
152 356 -392 0
-152 356 392 0
152 -356 392 0
-152 -356 -392 0
153 356 -393 0
-153 356 393 0
153 -356 393 0
-153 -356 -393 0
154 356 -394 0
-154 356 394 0
154 -356 394 0
-154 -356 -394 0
155 356 -395 0
-155 356 395 0
155 -356 395 0
-155 -356 -395 0
156 356 -396 0
-156 356 396 0
156 -356 396 0
-156 -356 -396 0
157 356 -397 0
-157 356 397 0
157 -356 397 0
-157 -356 -397 0
158 356 -398 0
-158 356 398 0
158 -356 398 0
-158 -356 -398 0
159 356 -399 0
-159 356 399 0
159 -356 399 0
-159 -356 -399 0
160 356 -400 0
-160 356 400 0
160 -356 400 0
-160 -356 -400 0
161 356 -401 0
-161 356 401 0
161 -356 401 0
-161 -356 -401 0
162 356 -402 0
-162 356 402 0
162 -356 402 0
-162 -356 -402 0
163 356 -403 0
-163 356 403 0
163 -356 403 0
-163 -356 -403 0
164 356 -404 0
-164 356 404 0
164 -356 404 0
-164 -356 -404 0
165 356 -405 0
-165 356 405 0
165 -356 405 0
-165 -356 -405 0
166 356 -406 0
-166 356 406 0
166 -356 406 0
-166 -356 -406 0
167 356 -407 0
-167 356 407 0
167 -356 407 0
-167 -356 -407 0
168 356 -408 0
-168 356 408 0
168 -356 408 0
-168 -356 -408 0
169 356 -409 0
-169 356 409 0
169 -356 409 0
-169 -356 -409 0
170 356 -410 0
-170 356 410 0
170 -356 410 0
-170 -356 -410 0
171 356 -411 0
-171 356 411 0
171 -356 411 0
-171 -356 -411 0
172 356 -412 0
-172 356 412 0
172 -356 412 0
-172 -356 -412 0
173 356 -413 0
-173 356 413 0
173 -356 413 0
-173 -356 -413 0
174 356 -414 0
-174 356 414 0
174 -356 414 0
-174 -356 -414 0
175 356 -415 0
-175 356 415 0
175 -356 415 0
-175 -356 -415 0
176 356 -416 0
-176 356 416 0
176 -356 416 0
-176 -356 -416 0
177 356 -417 0
-177 356 417 0
177 -356 417 0
-177 -356 -417 0
178 356 -418 0
-178 356 418 0
178 -356 418 0
-178 -356 -418 0
179 356 -419 0
-179 356 419 0
179 -356 419 0
-179 -356 -419 0
180 356 -420 0
-180 356 420 0
180 -356 420 0
-180 -356 -420 0
181 356 -421 0
-181 356 421 0
181 -356 421 0
-181 -356 -421 0
182 356 -422 0
-182 356 422 0
182 -356 422 0
-182 -356 -422 0
183 356 -423 0
-183 356 423 0
183 -356 423 0
-183 -356 -423 0
184 356 -424 0
-184 356 424 0
184 -356 424 0
-184 -356 -424 0
185 356 -425 0
-185 356 425 0
185 -356 425 0
-185 -356 -425 0
186 356 -426 0
-186 356 426 0
186 -356 426 0
-186 -356 -426 0
187 356 -427 0
-187 356 427 0
187 -356 427 0
-187 -356 -427 0
188 356 -428 0
-188 356 428 0
188 -356 428 0
-188 -356 -428 0
189 356 -429 0
-189 356 429 0
189 -356 429 0
-189 -356 -429 0
190 356 -430 0
-190 356 430 0
190 -356 430 0
-190 -356 -430 0
191 356 -431 0
-191 356 431 0
191 -356 431 0
-191 -356 -431 0
192 356 -432 0
-192 356 432 0
192 -356 432 0
-192 -356 -432 0
193 356 -433 0
-193 356 433 0
193 -356 433 0
-193 -356 -433 0
194 356 -434 0
-194 356 434 0
194 -356 434 0
-194 -356 -434 0
195 356 -435 0
-195 356 435 0
195 -356 435 0
-195 -356 -435 0
196 356 -436 0
-196 356 436 0
196 -356 436 0
-196 -356 -436 0
197 356 -437 0
-197 356 437 0
197 -356 437 0
-197 -356 -437 0
198 356 -438 0
-198 356 438 0
198 -356 438 0
-198 -356 -438 0
199 356 -439 0
-199 356 439 0
199 -356 439 0
-199 -356 -439 0
200 356 -440 0
-200 356 440 0
200 -356 440 0
-200 -356 -440 0
201 356 -441 0
-201 356 441 0
201 -356 441 0
-201 -356 -441 0
202 356 -442 0
-202 356 442 0
202 -356 442 0
-202 -356 -442 0
203 356 -443 0
-203 356 443 0
203 -356 443 0
-203 -356 -443 0
204 356 -444 0
-204 356 444 0
204 -356 444 0
-204 -356 -444 0
205 356 -445 0
-205 356 445 0
205 -356 445 0
-205 -356 -445 0
206 356 -446 0
-206 356 446 0
206 -356 446 0
-206 -356 -446 0
207 356 -447 0
-207 356 447 0
207 -356 447 0
-207 -356 -447 0
208 356 -448 0
-208 356 448 0
208 -356 448 0
-208 -356 -448 0
209 356 -449 0
-209 356 449 0
209 -356 449 0
-209 -356 -449 0
210 356 -450 0
-210 356 450 0
210 -356 450 0
-210 -356 -450 0
211 356 -451 0
-211 356 451 0
211 -356 451 0
-211 -356 -451 0
212 356 -452 0
-212 356 452 0
212 -356 452 0
-212 -356 -452 0
213 356 -453 0
-213 356 453 0
213 -356 453 0
-213 -356 -453 0
214 356 -454 0
-214 356 454 0
214 -356 454 0
-214 -356 -454 0
215 356 -455 0
-215 356 455 0
215 -356 455 0
-215 -356 -455 0
216 356 -456 0
-216 356 456 0
216 -356 456 0
-216 -356 -456 0
217 356 -457 0
-217 356 457 0
217 -356 457 0
-217 -356 -457 0
218 356 -458 0
-218 356 458 0
218 -356 458 0
-218 -356 -458 0
219 356 -459 0
-219 356 459 0
219 -356 459 0
-219 -356 -459 0
220 356 -460 0
-220 356 460 0
220 -356 460 0
-220 -356 -460 0
221 356 -461 0
-221 356 461 0
221 -356 461 0
-221 -356 -461 0
222 356 -462 0
-222 356 462 0
222 -356 462 0
-222 -356 -462 0
223 356 -463 0
-223 356 463 0
223 -356 463 0
-223 -356 -463 0
224 356 -464 0
-224 356 464 0
224 -356 464 0
-224 -356 -464 0
225 356 -465 0
-225 356 465 0
225 -356 465 0
-225 -356 -465 0
226 356 -466 0
-226 356 466 0
226 -356 466 0
-226 -356 -466 0
227 356 -467 0
-227 356 467 0
227 -356 467 0
-227 -356 -467 0
228 356 -468 0
-228 356 468 0
228 -356 468 0
-228 -356 -468 0
229 356 -469 0
-229 356 469 0
229 -356 469 0
-229 -356 -469 0
230 356 -470 0
-230 356 470 0
230 -356 470 0
-230 -356 -470 0
231 356 -471 0
-231 356 471 0
231 -356 471 0
-231 -356 -471 0
232 356 -472 0
-232 356 472 0
232 -356 472 0
-232 -356 -472 0
233 356 -473 0
-233 356 473 0
233 -356 473 0
-233 -356 -473 0
234 356 -474 0
-234 356 474 0
234 -356 474 0
-234 -356 -474 0
235 356 -475 0
-235 356 475 0
235 -356 475 0
-235 -356 -475 0
236 356 -476 0
-236 356 476 0
236 -356 476 0
-236 -356 -476 0
1 359 -478 0
-1 359 478 0
1 -359 478 0
-1 -359 -478 0
478 356 -237 0
-478 356 237 0
478 -356 237 0
-478 -356 -237 0
356 -479 0
478 -479 0
-356 -478 479 0
359 -480 0
1 -480 0
-359 -1 480 0
-479 477 0
-480 477 0
479 480 -477 0
2 360 -482 0
-2 360 482 0
2 -360 482 0
-2 -360 -482 0
482 477 -238 0
-482 477 238 0
482 -477 238 0
-482 -477 -238 0
477 -483 0
482 -483 0
-477 -482 483 0
360 -484 0
2 -484 0
-360 -2 484 0
-483 481 0
-484 481 0
483 484 -481 0
3 361 -486 0
-3 361 486 0
3 -361 486 0
-3 -361 -486 0
486 481 -239 0
-486 481 239 0
486 -481 239 0
-486 -481 -239 0
481 -487 0
486 -487 0
-481 -486 487 0
361 -488 0
3 -488 0
-361 -3 488 0
-487 485 0
-488 485 0
487 488 -485 0
4 362 -490 0
-4 362 490 0
4 -362 490 0
-4 -362 -490 0
490 485 -240 0
-490 485 240 0
490 -485 240 0
-490 -485 -240 0
485 -491 0
490 -491 0
-485 -490 491 0
362 -492 0
4 -492 0
-362 -4 492 0
-491 489 0
-492 489 0
491 492 -489 0
5 363 -494 0
-5 363 494 0
5 -363 494 0
-5 -363 -494 0
494 489 -241 0
-494 489 241 0
494 -489 241 0
-494 -489 -241 0
489 -495 0
494 -495 0
-489 -494 495 0
363 -496 0
5 -496 0
-363 -5 496 0
-495 493 0
-496 493 0
495 496 -493 0
6 364 -498 0
-6 364 498 0
6 -364 498 0
-6 -364 -498 0
498 493 -242 0
-498 493 242 0
498 -493 242 0
-498 -493 -242 0
493 -499 0
498 -499 0
-493 -498 499 0
364 -500 0
6 -500 0
-364 -6 500 0
-499 497 0
-500 497 0
499 500 -497 0
7 365 -502 0
-7 365 502 0
7 -365 502 0
-7 -365 -502 0
502 497 -243 0
-502 497 243 0
502 -497 243 0
-502 -497 -243 0
497 -503 0
502 -503 0
-497 -502 503 0
365 -504 0
7 -504 0
-365 -7 504 0
-503 501 0
-504 501 0
503 504 -501 0
8 366 -506 0
-8 366 506 0
8 -366 506 0
-8 -366 -506 0
506 501 -244 0
-506 501 244 0
506 -501 244 0
-506 -501 -244 0
501 -507 0
506 -507 0
-501 -506 507 0
366 -508 0
8 -508 0
-366 -8 508 0
-507 505 0
-508 505 0
507 508 -505 0
9 367 -510 0
-9 367 510 0
9 -367 510 0
-9 -367 -510 0
510 505 -245 0
-510 505 245 0
510 -505 245 0
-510 -505 -245 0
505 -511 0
510 -511 0
-505 -510 511 0
367 -512 0
9 -512 0
-367 -9 512 0
-511 509 0
-512 509 0
511 512 -509 0
10 368 -514 0
-10 368 514 0
10 -368 514 0
-10 -368 -514 0
514 509 -246 0
-514 509 246 0
514 -509 246 0
-514 -509 -246 0
509 -515 0
514 -515 0
-509 -514 515 0
368 -516 0
10 -516 0
-368 -10 516 0
-515 513 0
-516 513 0
515 516 -513 0
11 369 -518 0
-11 369 518 0
11 -369 518 0
-11 -369 -518 0
518 513 -247 0
-518 513 247 0
518 -513 247 0
-518 -513 -247 0
513 -519 0
518 -519 0
-513 -518 519 0
369 -520 0
11 -520 0
-369 -11 520 0
-519 517 0
-520 517 0
519 520 -517 0
12 370 -522 0
-12 370 522 0
12 -370 522 0
-12 -370 -522 0
522 517 -248 0
-522 517 248 0
522 -517 248 0
-522 -517 -248 0
517 -523 0
522 -523 0
-517 -522 523 0
370 -524 0
12 -524 0
-370 -12 524 0
-523 521 0
-524 521 0
523 524 -521 0
13 371 -526 0
-13 371 526 0
13 -371 526 0
-13 -371 -526 0
526 521 -249 0
-526 521 249 0
526 -521 249 0
-526 -521 -249 0
521 -527 0
526 -527 0
-521 -526 527 0
371 -528 0
13 -528 0
-371 -13 528 0
-527 525 0
-528 525 0
527 528 -525 0
14 372 -530 0
-14 372 530 0
14 -372 530 0
-14 -372 -530 0
530 525 -250 0
-530 525 250 0
530 -525 250 0
-530 -525 -250 0
525 -531 0
530 -531 0
-525 -530 531 0
372 -532 0
14 -532 0
-372 -14 532 0
-531 529 0
-532 529 0
531 532 -529 0
15 373 -534 0
-15 373 534 0
15 -373 534 0
-15 -373 -534 0
534 529 -251 0
-534 529 251 0
534 -529 251 0
-534 -529 -251 0
529 -535 0
534 -535 0
-529 -534 535 0
373 -536 0
15 -536 0
-373 -15 536 0
-535 533 0
-536 533 0
535 536 -533 0
16 374 -538 0
-16 374 538 0
16 -374 538 0
-16 -374 -538 0
538 533 -252 0
-538 533 252 0
538 -533 252 0
-538 -533 -252 0
533 -539 0
538 -539 0
-533 -538 539 0
374 -540 0
16 -540 0
-374 -16 540 0
-539 537 0
-540 537 0
539 540 -537 0
17 375 -542 0
-17 375 542 0
17 -375 542 0
-17 -375 -542 0
542 537 -253 0
-542 537 253 0
542 -537 253 0
-542 -537 -253 0
537 -543 0
542 -543 0
-537 -542 543 0
375 -544 0
17 -544 0
-375 -17 544 0
-543 541 0
-544 541 0
543 544 -541 0
18 376 -546 0
-18 376 546 0
18 -376 546 0
-18 -376 -546 0
546 541 -254 0
-546 541 254 0
546 -541 254 0
-546 -541 -254 0
541 -547 0
546 -547 0
-541 -546 547 0
376 -548 0
18 -548 0
-376 -18 548 0
-547 545 0
-548 545 0
547 548 -545 0
19 377 -550 0
-19 377 550 0
19 -377 550 0
-19 -377 -550 0
550 545 -255 0
-550 545 255 0
550 -545 255 0
-550 -545 -255 0
545 -551 0
550 -551 0
-545 -550 551 0
377 -552 0
19 -552 0
-377 -19 552 0
-551 549 0
-552 549 0
551 552 -549 0
20 378 -554 0
-20 378 554 0
20 -378 554 0
-20 -378 -554 0
554 549 -256 0
-554 549 256 0
554 -549 256 0
-554 -549 -256 0
549 -555 0
554 -555 0
-549 -554 555 0
378 -556 0
20 -556 0
-378 -20 556 0
-555 553 0
-556 553 0
555 556 -553 0
21 379 -558 0
-21 379 558 0
21 -379 558 0
-21 -379 -558 0
558 553 -257 0
-558 553 257 0
558 -553 257 0
-558 -553 -257 0
553 -559 0
558 -559 0
-553 -558 559 0
379 -560 0
21 -560 0
-379 -21 560 0
-559 557 0
-560 557 0
559 560 -557 0
22 380 -562 0
-22 380 562 0
22 -380 562 0
-22 -380 -562 0
562 557 -258 0
-562 557 258 0
562 -557 258 0
-562 -557 -258 0
557 -563 0
562 -563 0
-557 -562 563 0
380 -564 0
22 -564 0
-380 -22 564 0
-563 561 0
-564 561 0
563 564 -561 0
23 381 -566 0
-23 381 566 0
23 -381 566 0
-23 -381 -566 0
566 561 -259 0
-566 561 259 0
566 -561 259 0
-566 -561 -259 0
561 -567 0
566 -567 0
-561 -566 567 0
381 -568 0
23 -568 0
-381 -23 568 0
-567 565 0
-568 565 0
567 568 -565 0
24 382 -570 0
-24 382 570 0
24 -382 570 0
-24 -382 -570 0
570 565 -260 0
-570 565 260 0
570 -565 260 0
-570 -565 -260 0
565 -571 0
570 -571 0
-565 -570 571 0
382 -572 0
24 -572 0
-382 -24 572 0
-571 569 0
-572 569 0
571 572 -569 0
25 383 -574 0
-25 383 574 0
25 -383 574 0
-25 -383 -574 0
574 569 -261 0
-574 569 261 0
574 -569 261 0
-574 -569 -261 0
569 -575 0
574 -575 0
-569 -574 575 0
383 -576 0
25 -576 0
-383 -25 576 0
-575 573 0
-576 573 0
575 576 -573 0
26 384 -578 0
-26 384 578 0
26 -384 578 0
-26 -384 -578 0
578 573 -262 0
-578 573 262 0
578 -573 262 0
-578 -573 -262 0
573 -579 0
578 -579 0
-573 -578 579 0
384 -580 0
26 -580 0
-384 -26 580 0
-579 577 0
-580 577 0
579 580 -577 0
27 385 -582 0
-27 385 582 0
27 -385 582 0
-27 -385 -582 0
582 577 -263 0
-582 577 263 0
582 -577 263 0
-582 -577 -263 0
577 -583 0
582 -583 0
-577 -582 583 0
385 -584 0
27 -584 0
-385 -27 584 0
-583 581 0
-584 581 0
583 584 -581 0
28 386 -586 0
-28 386 586 0
28 -386 586 0
-28 -386 -586 0
586 581 -264 0
-586 581 264 0
586 -581 264 0
-586 -581 -264 0
581 -587 0
586 -587 0
-581 -586 587 0
386 -588 0
28 -588 0
-386 -28 588 0
-587 585 0
-588 585 0
587 588 -585 0
29 387 -590 0
-29 387 590 0
29 -387 590 0
-29 -387 -590 0
590 585 -265 0
-590 585 265 0
590 -585 265 0
-590 -585 -265 0
585 -591 0
590 -591 0
-585 -590 591 0
387 -592 0
29 -592 0
-387 -29 592 0
-591 589 0
-592 589 0
591 592 -589 0
30 388 -594 0
-30 388 594 0
30 -388 594 0
-30 -388 -594 0
594 589 -266 0
-594 589 266 0
594 -589 266 0
-594 -589 -266 0
589 -595 0
594 -595 0
-589 -594 595 0
388 -596 0
30 -596 0
-388 -30 596 0
-595 593 0
-596 593 0
595 596 -593 0
31 389 -598 0
-31 389 598 0
31 -389 598 0
-31 -389 -598 0
598 593 -267 0
-598 593 267 0
598 -593 267 0
-598 -593 -267 0
593 -599 0
598 -599 0
-593 -598 599 0
389 -600 0
31 -600 0
-389 -31 600 0
-599 597 0
-600 597 0
599 600 -597 0
32 390 -602 0
-32 390 602 0
32 -390 602 0
-32 -390 -602 0
602 597 -268 0
-602 597 268 0
602 -597 268 0
-602 -597 -268 0
597 -603 0
602 -603 0
-597 -602 603 0
390 -604 0
32 -604 0
-390 -32 604 0
-603 601 0
-604 601 0
603 604 -601 0
33 391 -606 0
-33 391 606 0
33 -391 606 0
-33 -391 -606 0
606 601 -269 0
-606 601 269 0
606 -601 269 0
-606 -601 -269 0
601 -607 0
606 -607 0
-601 -606 607 0
391 -608 0
33 -608 0
-391 -33 608 0
-607 605 0
-608 605 0
607 608 -605 0
34 392 -610 0
-34 392 610 0
34 -392 610 0
-34 -392 -610 0
610 605 -270 0
-610 605 270 0
610 -605 270 0
-610 -605 -270 0
605 -611 0
610 -611 0
-605 -610 611 0
392 -612 0
34 -612 0
-392 -34 612 0
-611 609 0
-612 609 0
611 612 -609 0
35 393 -614 0
-35 393 614 0
35 -393 614 0
-35 -393 -614 0
614 609 -271 0
-614 609 271 0
614 -609 271 0
-614 -609 -271 0
609 -615 0
614 -615 0
-609 -614 615 0
393 -616 0
35 -616 0
-393 -35 616 0
-615 613 0
-616 613 0
615 616 -613 0
36 394 -618 0
-36 394 618 0
36 -394 618 0
-36 -394 -618 0
618 613 -272 0
-618 613 272 0
618 -613 272 0
-618 -613 -272 0
613 -619 0
618 -619 0
-613 -618 619 0
394 -620 0
36 -620 0
-394 -36 620 0
-619 617 0
-620 617 0
619 620 -617 0
37 395 -622 0
-37 395 622 0
37 -395 622 0
-37 -395 -622 0
622 617 -273 0
-622 617 273 0
622 -617 273 0
-622 -617 -273 0
617 -623 0
622 -623 0
-617 -622 623 0
395 -624 0
37 -624 0
-395 -37 624 0
-623 621 0
-624 621 0
623 624 -621 0
38 396 -626 0
-38 396 626 0
38 -396 626 0
-38 -396 -626 0
626 621 -274 0
-626 621 274 0
626 -621 274 0
-626 -621 -274 0
621 -627 0
626 -627 0
-621 -626 627 0
396 -628 0
38 -628 0
-396 -38 628 0
-627 625 0
-628 625 0
627 628 -625 0
39 397 -630 0
-39 397 630 0
39 -397 630 0
-39 -397 -630 0
630 625 -275 0
-630 625 275 0
630 -625 275 0
-630 -625 -275 0
625 -631 0
630 -631 0
-625 -630 631 0
397 -632 0
39 -632 0
-397 -39 632 0
-631 629 0
-632 629 0
631 632 -629 0
40 398 -634 0
-40 398 634 0
40 -398 634 0
-40 -398 -634 0
634 629 -276 0
-634 629 276 0
634 -629 276 0
-634 -629 -276 0
629 -635 0
634 -635 0
-629 -634 635 0
398 -636 0
40 -636 0
-398 -40 636 0
-635 633 0
-636 633 0
635 636 -633 0
41 399 -638 0
-41 399 638 0
41 -399 638 0
-41 -399 -638 0
638 633 -277 0
-638 633 277 0
638 -633 277 0
-638 -633 -277 0
633 -639 0
638 -639 0
-633 -638 639 0
399 -640 0
41 -640 0
-399 -41 640 0
-639 637 0
-640 637 0
639 640 -637 0
42 400 -642 0
-42 400 642 0
42 -400 642 0
-42 -400 -642 0
642 637 -278 0
-642 637 278 0
642 -637 278 0
-642 -637 -278 0
637 -643 0
642 -643 0
-637 -642 643 0
400 -644 0
42 -644 0
-400 -42 644 0
-643 641 0
-644 641 0
643 644 -641 0
43 401 -646 0
-43 401 646 0
43 -401 646 0
-43 -401 -646 0
646 641 -279 0
-646 641 279 0
646 -641 279 0
-646 -641 -279 0
641 -647 0
646 -647 0
-641 -646 647 0
401 -648 0
43 -648 0
-401 -43 648 0
-647 645 0
-648 645 0
647 648 -645 0
44 402 -650 0
-44 402 650 0
44 -402 650 0
-44 -402 -650 0
650 645 -280 0
-650 645 280 0
650 -645 280 0
-650 -645 -280 0
645 -651 0
650 -651 0
-645 -650 651 0
402 -652 0
44 -652 0
-402 -44 652 0
-651 649 0
-652 649 0
651 652 -649 0
45 403 -654 0
-45 403 654 0
45 -403 654 0
-45 -403 -654 0
654 649 -281 0
-654 649 281 0
654 -649 281 0
-654 -649 -281 0
649 -655 0
654 -655 0
-649 -654 655 0
403 -656 0
45 -656 0
-403 -45 656 0
-655 653 0
-656 653 0
655 656 -653 0
46 404 -658 0
-46 404 658 0
46 -404 658 0
-46 -404 -658 0
658 653 -282 0
-658 653 282 0
658 -653 282 0
-658 -653 -282 0
653 -659 0
658 -659 0
-653 -658 659 0
404 -660 0
46 -660 0
-404 -46 660 0
-659 657 0
-660 657 0
659 660 -657 0
47 405 -662 0
-47 405 662 0
47 -405 662 0
-47 -405 -662 0
662 657 -283 0
-662 657 283 0
662 -657 283 0
-662 -657 -283 0
657 -663 0
662 -663 0
-657 -662 663 0
405 -664 0
47 -664 0
-405 -47 664 0
-663 661 0
-664 661 0
663 664 -661 0
48 406 -666 0
-48 406 666 0
48 -406 666 0
-48 -406 -666 0
666 661 -284 0
-666 661 284 0
666 -661 284 0
-666 -661 -284 0
661 -667 0
666 -667 0
-661 -666 667 0
406 -668 0
48 -668 0
-406 -48 668 0
-667 665 0
-668 665 0
667 668 -665 0
49 407 -670 0
-49 407 670 0
49 -407 670 0
-49 -407 -670 0
670 665 -285 0
-670 665 285 0
670 -665 285 0
-670 -665 -285 0
665 -671 0
670 -671 0
-665 -670 671 0
407 -672 0
49 -672 0
-407 -49 672 0
-671 669 0
-672 669 0
671 672 -669 0
50 408 -674 0
-50 408 674 0
50 -408 674 0
-50 -408 -674 0
674 669 -286 0
-674 669 286 0
674 -669 286 0
-674 -669 -286 0
669 -675 0
674 -675 0
-669 -674 675 0
408 -676 0
50 -676 0
-408 -50 676 0
-675 673 0
-676 673 0
675 676 -673 0
51 409 -678 0
-51 409 678 0
51 -409 678 0
-51 -409 -678 0
678 673 -287 0
-678 673 287 0
678 -673 287 0
-678 -673 -287 0
673 -679 0
678 -679 0
-673 -678 679 0
409 -680 0
51 -680 0
-409 -51 680 0
-679 677 0
-680 677 0
679 680 -677 0
52 410 -682 0
-52 410 682 0
52 -410 682 0
-52 -410 -682 0
682 677 -288 0
-682 677 288 0
682 -677 288 0
-682 -677 -288 0
677 -683 0
682 -683 0
-677 -682 683 0
410 -684 0
52 -684 0
-410 -52 684 0
-683 681 0
-684 681 0
683 684 -681 0
53 411 -686 0
-53 411 686 0
53 -411 686 0
-53 -411 -686 0
686 681 -289 0
-686 681 289 0
686 -681 289 0
-686 -681 -289 0
681 -687 0
686 -687 0
-681 -686 687 0
411 -688 0
53 -688 0
-411 -53 688 0
-687 685 0
-688 685 0
687 688 -685 0
54 412 -690 0
-54 412 690 0
54 -412 690 0
-54 -412 -690 0
690 685 -290 0
-690 685 290 0
690 -685 290 0
-690 -685 -290 0
685 -691 0
690 -691 0
-685 -690 691 0
412 -692 0
54 -692 0
-412 -54 692 0
-691 689 0
-692 689 0
691 692 -689 0
55 413 -694 0
-55 413 694 0
55 -413 694 0
-55 -413 -694 0
694 689 -291 0
-694 689 291 0
694 -689 291 0
-694 -689 -291 0
689 -695 0
694 -695 0
-689 -694 695 0
413 -696 0
55 -696 0
-413 -55 696 0
-695 693 0
-696 693 0
695 696 -693 0
56 414 -698 0
-56 414 698 0
56 -414 698 0
-56 -414 -698 0
698 693 -292 0
-698 693 292 0
698 -693 292 0
-698 -693 -292 0
693 -699 0
698 -699 0
-693 -698 699 0
414 -700 0
56 -700 0
-414 -56 700 0
-699 697 0
-700 697 0
699 700 -697 0
57 415 -702 0
-57 415 702 0
57 -415 702 0
-57 -415 -702 0
702 697 -293 0
-702 697 293 0
702 -697 293 0
-702 -697 -293 0
697 -703 0
702 -703 0
-697 -702 703 0
415 -704 0
57 -704 0
-415 -57 704 0
-703 701 0
-704 701 0
703 704 -701 0
58 416 -706 0
-58 416 706 0
58 -416 706 0
-58 -416 -706 0
706 701 -294 0
-706 701 294 0
706 -701 294 0
-706 -701 -294 0
701 -707 0
706 -707 0
-701 -706 707 0
416 -708 0
58 -708 0
-416 -58 708 0
-707 705 0
-708 705 0
707 708 -705 0
59 417 -710 0
-59 417 710 0
59 -417 710 0
-59 -417 -710 0
710 705 -295 0
-710 705 295 0
710 -705 295 0
-710 -705 -295 0
705 -711 0
710 -711 0
-705 -710 711 0
417 -712 0
59 -712 0
-417 -59 712 0
-711 709 0
-712 709 0
711 712 -709 0
60 418 -714 0
-60 418 714 0
60 -418 714 0
-60 -418 -714 0
714 709 -296 0
-714 709 296 0
714 -709 296 0
-714 -709 -296 0
709 -715 0
714 -715 0
-709 -714 715 0
418 -716 0
60 -716 0
-418 -60 716 0
-715 713 0
-716 713 0
715 716 -713 0
61 419 -718 0
-61 419 718 0
61 -419 718 0
-61 -419 -718 0
718 713 -297 0
-718 713 297 0
718 -713 297 0
-718 -713 -297 0
713 -719 0
718 -719 0
-713 -718 719 0
419 -720 0
61 -720 0
-419 -61 720 0
-719 717 0
-720 717 0
719 720 -717 0
62 420 -722 0
-62 420 722 0
62 -420 722 0
-62 -420 -722 0
722 717 -298 0
-722 717 298 0
722 -717 298 0
-722 -717 -298 0
717 -723 0
722 -723 0
-717 -722 723 0
420 -724 0
62 -724 0
-420 -62 724 0
-723 721 0
-724 721 0
723 724 -721 0
63 421 -726 0
-63 421 726 0
63 -421 726 0
-63 -421 -726 0
726 721 -299 0
-726 721 299 0
726 -721 299 0
-726 -721 -299 0
721 -727 0
726 -727 0
-721 -726 727 0
421 -728 0
63 -728 0
-421 -63 728 0
-727 725 0
-728 725 0
727 728 -725 0
64 422 -730 0
-64 422 730 0
64 -422 730 0
-64 -422 -730 0
730 725 -300 0
-730 725 300 0
730 -725 300 0
-730 -725 -300 0
725 -731 0
730 -731 0
-725 -730 731 0
422 -732 0
64 -732 0
-422 -64 732 0
-731 729 0
-732 729 0
731 732 -729 0
65 423 -734 0
-65 423 734 0
65 -423 734 0
-65 -423 -734 0
734 729 -301 0
-734 729 301 0
734 -729 301 0
-734 -729 -301 0
729 -735 0
734 -735 0
-729 -734 735 0
423 -736 0
65 -736 0
-423 -65 736 0
-735 733 0
-736 733 0
735 736 -733 0
66 424 -738 0
-66 424 738 0
66 -424 738 0
-66 -424 -738 0
738 733 -302 0
-738 733 302 0
738 -733 302 0
-738 -733 -302 0
733 -739 0
738 -739 0
-733 -738 739 0
424 -740 0
66 -740 0
-424 -66 740 0
-739 737 0
-740 737 0
739 740 -737 0
67 425 -742 0
-67 425 742 0
67 -425 742 0
-67 -425 -742 0
742 737 -303 0
-742 737 303 0
742 -737 303 0
-742 -737 -303 0
737 -743 0
742 -743 0
-737 -742 743 0
425 -744 0
67 -744 0
-425 -67 744 0
-743 741 0
-744 741 0
743 744 -741 0
68 426 -746 0
-68 426 746 0
68 -426 746 0
-68 -426 -746 0
746 741 -304 0
-746 741 304 0
746 -741 304 0
-746 -741 -304 0
741 -747 0
746 -747 0
-741 -746 747 0
426 -748 0
68 -748 0
-426 -68 748 0
-747 745 0
-748 745 0
747 748 -745 0
69 427 -750 0
-69 427 750 0
69 -427 750 0
-69 -427 -750 0
750 745 -305 0
-750 745 305 0
750 -745 305 0
-750 -745 -305 0
745 -751 0
750 -751 0
-745 -750 751 0
427 -752 0
69 -752 0
-427 -69 752 0
-751 749 0
-752 749 0
751 752 -749 0
70 428 -754 0
-70 428 754 0
70 -428 754 0
-70 -428 -754 0
754 749 -306 0
-754 749 306 0
754 -749 306 0
-754 -749 -306 0
749 -755 0
754 -755 0
-749 -754 755 0
428 -756 0
70 -756 0
-428 -70 756 0
-755 753 0
-756 753 0
755 756 -753 0
71 429 -758 0
-71 429 758 0
71 -429 758 0
-71 -429 -758 0
758 753 -307 0
-758 753 307 0
758 -753 307 0
-758 -753 -307 0
753 -759 0
758 -759 0
-753 -758 759 0
429 -760 0
71 -760 0
-429 -71 760 0
-759 757 0
-760 757 0
759 760 -757 0
72 430 -762 0
-72 430 762 0
72 -430 762 0
-72 -430 -762 0
762 757 -308 0
-762 757 308 0
762 -757 308 0
-762 -757 -308 0
757 -763 0
762 -763 0
-757 -762 763 0
430 -764 0
72 -764 0
-430 -72 764 0
-763 761 0
-764 761 0
763 764 -761 0
73 431 -766 0
-73 431 766 0
73 -431 766 0
-73 -431 -766 0
766 761 -309 0
-766 761 309 0
766 -761 309 0
-766 -761 -309 0
761 -767 0
766 -767 0
-761 -766 767 0
431 -768 0
73 -768 0
-431 -73 768 0
-767 765 0
-768 765 0
767 768 -765 0
74 432 -770 0
-74 432 770 0
74 -432 770 0
-74 -432 -770 0
770 765 -310 0
-770 765 310 0
770 -765 310 0
-770 -765 -310 0
765 -771 0
770 -771 0
-765 -770 771 0
432 -772 0
74 -772 0
-432 -74 772 0
-771 769 0
-772 769 0
771 772 -769 0
75 433 -774 0
-75 433 774 0
75 -433 774 0
-75 -433 -774 0
774 769 -311 0
-774 769 311 0
774 -769 311 0
-774 -769 -311 0
769 -775 0
774 -775 0
-769 -774 775 0
433 -776 0
75 -776 0
-433 -75 776 0
-775 773 0
-776 773 0
775 776 -773 0
76 434 -778 0
-76 434 778 0
76 -434 778 0
-76 -434 -778 0
778 773 -312 0
-778 773 312 0
778 -773 312 0
-778 -773 -312 0
773 -779 0
778 -779 0
-773 -778 779 0
434 -780 0
76 -780 0
-434 -76 780 0
-779 777 0
-780 777 0
779 780 -777 0
77 435 -782 0
-77 435 782 0
77 -435 782 0
-77 -435 -782 0
782 777 -313 0
-782 777 313 0
782 -777 313 0
-782 -777 -313 0
777 -783 0
782 -783 0
-777 -782 783 0
435 -784 0
77 -784 0
-435 -77 784 0
-783 781 0
-784 781 0
783 784 -781 0
78 436 -786 0
-78 436 786 0
78 -436 786 0
-78 -436 -786 0
786 781 -314 0
-786 781 314 0
786 -781 314 0
-786 -781 -314 0
781 -787 0
786 -787 0
-781 -786 787 0
436 -788 0
78 -788 0
-436 -78 788 0
-787 785 0
-788 785 0
787 788 -785 0
79 437 -790 0
-79 437 790 0
79 -437 790 0
-79 -437 -790 0
790 785 -315 0
-790 785 315 0
790 -785 315 0
-790 -785 -315 0
785 -791 0
790 -791 0
-785 -790 791 0
437 -792 0
79 -792 0
-437 -79 792 0
-791 789 0
-792 789 0
791 792 -789 0
80 438 -794 0
-80 438 794 0
80 -438 794 0
-80 -438 -794 0
794 789 -316 0
-794 789 316 0
794 -789 316 0
-794 -789 -316 0
789 -795 0
794 -795 0
-789 -794 795 0
438 -796 0
80 -796 0
-438 -80 796 0
-795 793 0
-796 793 0
795 796 -793 0
81 439 -798 0
-81 439 798 0
81 -439 798 0
-81 -439 -798 0
798 793 -317 0
-798 793 317 0
798 -793 317 0
-798 -793 -317 0
793 -799 0
798 -799 0
-793 -798 799 0
439 -800 0
81 -800 0
-439 -81 800 0
-799 797 0
-800 797 0
799 800 -797 0
82 440 -802 0
-82 440 802 0
82 -440 802 0
-82 -440 -802 0
802 797 -318 0
-802 797 318 0
802 -797 318 0
-802 -797 -318 0
797 -803 0
802 -803 0
-797 -802 803 0
440 -804 0
82 -804 0
-440 -82 804 0
-803 801 0
-804 801 0
803 804 -801 0
83 441 -806 0
-83 441 806 0
83 -441 806 0
-83 -441 -806 0
806 801 -319 0
-806 801 319 0
806 -801 319 0
-806 -801 -319 0
801 -807 0
806 -807 0
-801 -806 807 0
441 -808 0
83 -808 0
-441 -83 808 0
-807 805 0
-808 805 0
807 808 -805 0
84 442 -810 0
-84 442 810 0
84 -442 810 0
-84 -442 -810 0
810 805 -320 0
-810 805 320 0
810 -805 320 0
-810 -805 -320 0
805 -811 0
810 -811 0
-805 -810 811 0
442 -812 0
84 -812 0
-442 -84 812 0
-811 809 0
-812 809 0
811 812 -809 0
85 443 -814 0
-85 443 814 0
85 -443 814 0
-85 -443 -814 0
814 809 -321 0
-814 809 321 0
814 -809 321 0
-814 -809 -321 0
809 -815 0
814 -815 0
-809 -814 815 0
443 -816 0
85 -816 0
-443 -85 816 0
-815 813 0
-816 813 0
815 816 -813 0
86 444 -818 0
-86 444 818 0
86 -444 818 0
-86 -444 -818 0
818 813 -322 0
-818 813 322 0
818 -813 322 0
-818 -813 -322 0
813 -819 0
818 -819 0
-813 -818 819 0
444 -820 0
86 -820 0
-444 -86 820 0
-819 817 0
-820 817 0
819 820 -817 0
87 445 -822 0
-87 445 822 0
87 -445 822 0
-87 -445 -822 0
822 817 -323 0
-822 817 323 0
822 -817 323 0
-822 -817 -323 0
817 -823 0
822 -823 0
-817 -822 823 0
445 -824 0
87 -824 0
-445 -87 824 0
-823 821 0
-824 821 0
823 824 -821 0
88 446 -826 0
-88 446 826 0
88 -446 826 0
-88 -446 -826 0
826 821 -324 0
-826 821 324 0
826 -821 324 0
-826 -821 -324 0
821 -827 0
826 -827 0
-821 -826 827 0
446 -828 0
88 -828 0
-446 -88 828 0
-827 825 0
-828 825 0
827 828 -825 0
89 447 -830 0
-89 447 830 0
89 -447 830 0
-89 -447 -830 0
830 825 -325 0
-830 825 325 0
830 -825 325 0
-830 -825 -325 0
825 -831 0
830 -831 0
-825 -830 831 0
447 -832 0
89 -832 0
-447 -89 832 0
-831 829 0
-832 829 0
831 832 -829 0
90 448 -834 0
-90 448 834 0
90 -448 834 0
-90 -448 -834 0
834 829 -326 0
-834 829 326 0
834 -829 326 0
-834 -829 -326 0
829 -835 0
834 -835 0
-829 -834 835 0
448 -836 0
90 -836 0
-448 -90 836 0
-835 833 0
-836 833 0
835 836 -833 0
91 449 -838 0
-91 449 838 0
91 -449 838 0
-91 -449 -838 0
838 833 -327 0
-838 833 327 0
838 -833 327 0
-838 -833 -327 0
833 -839 0
838 -839 0
-833 -838 839 0
449 -840 0
91 -840 0
-449 -91 840 0
-839 837 0
-840 837 0
839 840 -837 0
92 450 -842 0
-92 450 842 0
92 -450 842 0
-92 -450 -842 0
842 837 -328 0
-842 837 328 0
842 -837 328 0
-842 -837 -328 0
837 -843 0
842 -843 0
-837 -842 843 0
450 -844 0
92 -844 0
-450 -92 844 0
-843 841 0
-844 841 0
843 844 -841 0
93 451 -846 0
-93 451 846 0
93 -451 846 0
-93 -451 -846 0
846 841 -329 0
-846 841 329 0
846 -841 329 0
-846 -841 -329 0
841 -847 0
846 -847 0
-841 -846 847 0
451 -848 0
93 -848 0
-451 -93 848 0
-847 845 0
-848 845 0
847 848 -845 0
94 452 -850 0
-94 452 850 0
94 -452 850 0
-94 -452 -850 0
850 845 -330 0
-850 845 330 0
850 -845 330 0
-850 -845 -330 0
845 -851 0
850 -851 0
-845 -850 851 0
452 -852 0
94 -852 0
-452 -94 852 0
-851 849 0
-852 849 0
851 852 -849 0
95 453 -854 0
-95 453 854 0
95 -453 854 0
-95 -453 -854 0
854 849 -331 0
-854 849 331 0
854 -849 331 0
-854 -849 -331 0
849 -855 0
854 -855 0
-849 -854 855 0
453 -856 0
95 -856 0
-453 -95 856 0
-855 853 0
-856 853 0
855 856 -853 0
96 454 -858 0
-96 454 858 0
96 -454 858 0
-96 -454 -858 0
858 853 -332 0
-858 853 332 0
858 -853 332 0
-858 -853 -332 0
853 -859 0
858 -859 0
-853 -858 859 0
454 -860 0
96 -860 0
-454 -96 860 0
-859 857 0
-860 857 0
859 860 -857 0
97 455 -862 0
-97 455 862 0
97 -455 862 0
-97 -455 -862 0
862 857 -333 0
-862 857 333 0
862 -857 333 0
-862 -857 -333 0
857 -863 0
862 -863 0
-857 -862 863 0
455 -864 0
97 -864 0
-455 -97 864 0
-863 861 0
-864 861 0
863 864 -861 0
98 456 -866 0
-98 456 866 0
98 -456 866 0
-98 -456 -866 0
866 861 -334 0
-866 861 334 0
866 -861 334 0
-866 -861 -334 0
861 -867 0
866 -867 0
-861 -866 867 0
456 -868 0
98 -868 0
-456 -98 868 0
-867 865 0
-868 865 0
867 868 -865 0
99 457 -870 0
-99 457 870 0
99 -457 870 0
-99 -457 -870 0
870 865 -335 0
-870 865 335 0
870 -865 335 0
-870 -865 -335 0
865 -871 0
870 -871 0
-865 -870 871 0
457 -872 0
99 -872 0
-457 -99 872 0
-871 869 0
-872 869 0
871 872 -869 0
100 458 -874 0
-100 458 874 0
100 -458 874 0
-100 -458 -874 0
874 869 -336 0
-874 869 336 0
874 -869 336 0
-874 -869 -336 0
869 -875 0
874 -875 0
-869 -874 875 0
458 -876 0
100 -876 0
-458 -100 876 0
-875 873 0
-876 873 0
875 876 -873 0
101 459 -878 0
-101 459 878 0
101 -459 878 0
-101 -459 -878 0
878 873 -337 0
-878 873 337 0
878 -873 337 0
-878 -873 -337 0
873 -879 0
878 -879 0
-873 -878 879 0
459 -880 0
101 -880 0
-459 -101 880 0
-879 877 0
-880 877 0
879 880 -877 0
102 460 -882 0
-102 460 882 0
102 -460 882 0
-102 -460 -882 0
882 877 -338 0
-882 877 338 0
882 -877 338 0
-882 -877 -338 0
877 -883 0
882 -883 0
-877 -882 883 0
460 -884 0
102 -884 0
-460 -102 884 0
-883 881 0
-884 881 0
883 884 -881 0
103 461 -886 0
-103 461 886 0
103 -461 886 0
-103 -461 -886 0
886 881 -339 0
-886 881 339 0
886 -881 339 0
-886 -881 -339 0
881 -887 0
886 -887 0
-881 -886 887 0
461 -888 0
103 -888 0
-461 -103 888 0
-887 885 0
-888 885 0
887 888 -885 0
104 462 -890 0
-104 462 890 0
104 -462 890 0
-104 -462 -890 0
890 885 -340 0
-890 885 340 0
890 -885 340 0
-890 -885 -340 0
885 -891 0
890 -891 0
-885 -890 891 0
462 -892 0
104 -892 0
-462 -104 892 0
-891 889 0
-892 889 0
891 892 -889 0
105 463 -894 0
-105 463 894 0
105 -463 894 0
-105 -463 -894 0
894 889 -341 0
-894 889 341 0
894 -889 341 0
-894 -889 -341 0
889 -895 0
894 -895 0
-889 -894 895 0
463 -896 0
105 -896 0
-463 -105 896 0
-895 893 0
-896 893 0
895 896 -893 0
106 464 -898 0
-106 464 898 0
106 -464 898 0
-106 -464 -898 0
898 893 -342 0
-898 893 342 0
898 -893 342 0
-898 -893 -342 0
893 -899 0
898 -899 0
-893 -898 899 0
464 -900 0
106 -900 0
-464 -106 900 0
-899 897 0
-900 897 0
899 900 -897 0
107 465 -902 0
-107 465 902 0
107 -465 902 0
-107 -465 -902 0
902 897 -343 0
-902 897 343 0
902 -897 343 0
-902 -897 -343 0
897 -903 0
902 -903 0
-897 -902 903 0
465 -904 0
107 -904 0
-465 -107 904 0
-903 901 0
-904 901 0
903 904 -901 0
108 466 -906 0
-108 466 906 0
108 -466 906 0
-108 -466 -906 0
906 901 -344 0
-906 901 344 0
906 -901 344 0
-906 -901 -344 0
901 -907 0
906 -907 0
-901 -906 907 0
466 -908 0
108 -908 0
-466 -108 908 0
-907 905 0
-908 905 0
907 908 -905 0
109 467 -910 0
-109 467 910 0
109 -467 910 0
-109 -467 -910 0
910 905 -345 0
-910 905 345 0
910 -905 345 0
-910 -905 -345 0
905 -911 0
910 -911 0
-905 -910 911 0
467 -912 0
109 -912 0
-467 -109 912 0
-911 909 0
-912 909 0
911 912 -909 0
110 468 -914 0
-110 468 914 0
110 -468 914 0
-110 -468 -914 0
914 909 -346 0
-914 909 346 0
914 -909 346 0
-914 -909 -346 0
909 -915 0
914 -915 0
-909 -914 915 0
468 -916 0
110 -916 0
-468 -110 916 0
-915 913 0
-916 913 0
915 916 -913 0
111 469 -918 0
-111 469 918 0
111 -469 918 0
-111 -469 -918 0
918 913 -347 0
-918 913 347 0
918 -913 347 0
-918 -913 -347 0
913 -919 0
918 -919 0
-913 -918 919 0
469 -920 0
111 -920 0
-469 -111 920 0
-919 917 0
-920 917 0
919 920 -917 0
112 470 -922 0
-112 470 922 0
112 -470 922 0
-112 -470 -922 0
922 917 -348 0
-922 917 348 0
922 -917 348 0
-922 -917 -348 0
917 -923 0
922 -923 0
-917 -922 923 0
470 -924 0
112 -924 0
-470 -112 924 0
-923 921 0
-924 921 0
923 924 -921 0
113 471 -926 0
-113 471 926 0
113 -471 926 0
-113 -471 -926 0
926 921 -349 0
-926 921 349 0
926 -921 349 0
-926 -921 -349 0
921 -927 0
926 -927 0
-921 -926 927 0
471 -928 0
113 -928 0
-471 -113 928 0
-927 925 0
-928 925 0
927 928 -925 0
114 472 -930 0
-114 472 930 0
114 -472 930 0
-114 -472 -930 0
930 925 -350 0
-930 925 350 0
930 -925 350 0
-930 -925 -350 0
925 -931 0
930 -931 0
-925 -930 931 0
472 -932 0
114 -932 0
-472 -114 932 0
-931 929 0
-932 929 0
931 932 -929 0
115 473 -934 0
-115 473 934 0
115 -473 934 0
-115 -473 -934 0
934 929 -351 0
-934 929 351 0
934 -929 351 0
-934 -929 -351 0
929 -935 0
934 -935 0
-929 -934 935 0
473 -936 0
115 -936 0
-473 -115 936 0
-935 933 0
-936 933 0
935 936 -933 0
116 474 -938 0
-116 474 938 0
116 -474 938 0
-116 -474 -938 0
938 933 -352 0
-938 933 352 0
938 -933 352 0
-938 -933 -352 0
933 -939 0
938 -939 0
-933 -938 939 0
474 -940 0
116 -940 0
-474 -116 940 0
-939 937 0
-940 937 0
939 940 -937 0
117 475 -942 0
-117 475 942 0
117 -475 942 0
-117 -475 -942 0
942 937 -353 0
-942 937 353 0
942 -937 353 0
-942 -937 -353 0
937 -943 0
942 -943 0
-937 -942 943 0
475 -944 0
117 -944 0
-475 -117 944 0
-943 941 0
-944 941 0
943 944 -941 0
118 476 -946 0
-118 476 946 0
118 -476 946 0
-118 -476 -946 0
946 941 -354 0
-946 941 354 0
946 -941 354 0
-946 -941 -354 0
941 -947 0
946 -947 0
-941 -946 947 0
476 -948 0
118 -948 0
-476 -118 948 0
-947 945 0
-948 945 0
947 948 -945 0
945 356 -355 0
-945 356 355 0
945 -356 355 0
-945 -356 -355 0
